p tw 96 1521 8 
1 9 
1 11 
1 81 
1 83 
2 7 
2 10 
2 12 
2 82 
2 84 
3 5 
3 8 
3 10 
4 6 
4 7 
4 9 
5 9 
5 10 
6 7 
6 8 
11 18 
11 19 
11 83 
12 17 
12 20 
12 84 
13 18 
13 20 
13 23 
14 17 
14 19 
14 24 
15 19 
15 20 
15 25 
16 17 
16 18 
16 26 
21 28 
21 29 
21 31 
21 85 
21 87 
22 27 
22 30 
22 32 
22 86 
22 88 
23 28 
23 30 
24 27 
24 29 
25 29 
25 30 
26 27 
26 28 
31 38 
31 39 
31 87 
32 37 
32 40 
32 88 
33 38 
33 40 
33 43 
34 37 
34 39 
34 44 
35 39 
35 40 
35 45 
36 37 
36 38 
36 46 
41 48 
41 49 
41 51 
41 89 
41 91 
42 47 
42 50 
42 52 
42 90 
42 92 
43 48 
43 50 
44 47 
44 49 
45 49 
45 50 
46 47 
46 48 
51 58 
51 59 
51 91 
52 57 
52 60 
52 92 
53 58 
53 60 
53 63 
54 57 
54 59 
54 64 
55 59 
55 60 
55 65 
56 57 
56 58 
56 66 
61 68 
61 69 
61 71 
61 93 
61 95 
62 67 
62 70 
62 72 
62 94 
62 96 
63 68 
63 70 
64 67 
64 69 
65 69 
65 70 
66 67 
66 68 
71 78 
71 79 
71 95 
72 77 
72 80 
72 96 
73 75 
73 78 
73 80 
74 76 
74 77 
74 79 
75 79 
75 80 
76 77 
76 78 
81 82 
83 84 
85 86 
87 88 
89 90 
91 92 
93 94 
95 96 
